10
0 783 740 287 280 600 882 704 763 1024
783 0 189 626 762 442 1026 287 322 354
740 189 0 653 788 560 1148 440 488 539
287 626 653 0 137 328 644 464 514 792
280 762 788 137 0 431 602 585 629 912
600 442 560 328 431 0 589 178 203 488
882 1026 1148 644 602 589 0 742 728 950
704 287 440 464 585 178 742 0 68 329
763 322 488 514 629 203 728 68 0 285
1024 354 539 792 912 488 950 329 285 0
